%%MatrixMarket matrix array real general
%Created with the Wolfram Language : www.wolfram.com
4 4
   0.0000000000000000E+00
  -6.0000000000000000E+00
  -4.0000000000000000E+00
   1.5000000000000000E+01
   0.0000000000000000E+00
   0.0000000000000000E+00
   0.0000000000000000E+00
   0.0000000000000000E+00
   0.0000000000000000E+00
   0.0000000000000000E+00
   0.0000000000000000E+00
   1.5000000000000000E+01
   0.0000000000000000E+00
   1.2000000000000000E+01
   8.0000000000000000E+00
   6.0000000000000000E+00
